p cnf 163 295
83 0
-1 83 0
1 -83 0
84 0
-2 84 0
2 -84 0
85 0
-3 85 0
3 -85 0
86 0
-4 86 0
4 -86 0
87 0
-5 87 0
5 -87 0
88 0
-6 88 0
6 -88 0
89 0
-7 89 0
7 -89 0
90 0
-8 90 0
8 -90 0
91 0
-9 91 0
9 -91 0
92 0
-10 92 0
10 -92 0
93 0
-11 93 0
11 -93 0
94 0
-12 94 0
12 -94 0
95 0
-13 95 0
13 -95 0
96 0
-14 96 0
14 -96 0
97 0
-15 97 0
15 -97 0
98 0
-16 98 0
16 -98 0
99 0
-17 99 0
17 -99 0
100 0
-18 100 0
18 -100 0
101 0
-19 101 0
19 -101 0
102 0
-20 102 0
20 -102 0
103 0
-21 103 0
21 -103 0
104 0
-22 104 0
22 -104 0
105 0
-23 105 0
23 -105 0
106 0
-24 106 0
24 -106 0
107 0
-25 107 0
25 -107 0
108 0
-26 108 0
26 -108 0
109 0
-27 109 0
27 -109 0
110 0
-28 110 0
28 -110 0
111 0
-29 111 0
29 -111 0
112 -55 -37 0
-112 55 0
-112 37 0
113 -68 0
-113 68 0
-30 112 113 0
30 -112 0
30 -113 0
114 -75 0
-114 75 0
115 -60 -35 0
-115 60 0
-115 35 0
-33 114 115 0
33 -114 0
33 -115 0
116 -50 -81 0
-116 50 0
-116 81 0
117 -74 0
-117 74 0
118 -65 -75 0
-118 65 0
-118 75 0
119 -52 -80 0
-119 52 0
-119 80 0
120 -48 -82 0
-120 48 0
-120 82 0
-35 116 117 118 119 120 0
35 -116 0
35 -117 0
35 -118 0
35 -119 0
35 -120 0
121 -53 -71 0
-121 53 0
-121 71 0
122 -51 -72 0
-122 51 0
-122 72 0
123 -49 -70 0
-123 49 0
-123 70 0
124 -36 0
-124 36 0
125 -66 -73 0
-125 66 0
-125 73 0
126 -67 -68 0
-126 67 0
-126 68 0
-37 121 122 123 124 125 126 0
37 -121 0
37 -122 0
37 -123 0
37 -124 0
37 -125 0
37 -126 0
127 -61 -35 0
-127 61 0
-127 35 0
128 -69 0
-128 69 0
-39 127 128 0
39 -127 0
39 -128 0
129 -80 0
-129 80 0
130 -62 -35 0
-130 62 0
-130 35 0
-41 129 130 0
41 -129 0
41 -130 0
131 -81 0
-131 81 0
132 -63 -35 0
-132 63 0
-132 35 0
-43 131 132 0
43 -131 0
43 -132 0
133 -64 -35 0
-133 64 0
-133 35 0
134 -82 0
-134 82 0
-45 133 134 0
45 -133 0
45 -134 0
135 -47 0
-135 47 0
-46 135 0
46 -135 0
136 -31 0
-136 31 0
-68 136 0
68 -136 0
137 -38 0
-137 38 0
-69 137 0
69 -137 0
138 -64 -74 0
-138 64 0
-138 74 0
139 -76 0
-139 76 0
-70 138 139 0
70 -138 0
70 -139 0
140 -62 -74 0
-140 62 0
-140 74 0
141 -77 0
-141 77 0
-71 140 141 0
71 -140 0
71 -141 0
142 -78 0
-142 78 0
143 -63 -74 0
-143 63 0
-143 74 0
-72 142 143 0
72 -142 0
72 -143 0
144 -60 -74 0
-144 60 0
-144 74 0
145 -79 0
-145 79 0
-73 144 145 0
73 -144 0
73 -145 0
146 -50 -78 0
-146 50 0
-146 78 0
147 -34 0
-147 34 0
148 -48 -76 0
-148 48 0
-148 76 0
149 -52 -77 0
-149 52 0
-149 77 0
150 -65 -79 0
-150 65 0
-150 79 0
151 -54 -69 0
-151 54 0
-151 69 0
-74 146 147 148 149 150 151 0
74 -146 0
74 -147 0
74 -148 0
74 -149 0
74 -150 0
74 -151 0
152 -56 -37 0
-152 56 0
-152 37 0
153 -73 0
-153 73 0
-75 152 153 0
75 -152 0
75 -153 0
154 -44 0
-154 44 0
-76 154 0
76 -154 0
155 -40 0
-155 40 0
-77 155 0
77 -155 0
156 -42 0
-156 42 0
-78 156 0
78 -156 0
157 -32 0
-157 32 0
-79 157 0
79 -157 0
158 -71 0
-158 71 0
159 -57 -37 0
-159 57 0
-159 37 0
-80 158 159 0
80 -158 0
80 -159 0
160 -58 -37 0
-160 58 0
-160 37 0
161 -72 0
-161 72 0
-81 160 161 0
81 -160 0
81 -161 0
162 -59 -37 0
-162 59 0
-162 37 0
163 -70 0
-163 70 0
-82 162 163 0
82 -162 0
82 -163 0
c p weight 1 1.0;1.0;1.0;1.0;1.0;1.0;1.0;1.0;1.0 0
c p weight -1 1.0;1.0;1.0;1.0;1.0;1.0;1.0;1.0;1.0 0
c p weight 2 1.0;1.0;1.0;1.0;1.0;1.0;1.0;1.0;1.0 0
c p weight -2 1.0;1.0;1.0;1.0;1.0;1.0;1.0;1.0;1.0 0
c p weight 3 1.0;1.0;1.0;1.0;1.0;1.0;1.0;1.0;1.0 0
c p weight -3 1.0;1.0;1.0;1.0;1.0;1.0;1.0;1.0;1.0 0
c p weight 4 1.0;1.0;1.0;1.0;1.0;1.0;1.0;1.0;1.0 0
c p weight -4 1.0;1.0;1.0;1.0;1.0;1.0;1.0;1.0;1.0 0
c p weight 5 1.0;1.0;1.0;1.0;1.0;1.0;1.0;1.0;1.0 0
c p weight -5 1.0;1.0;1.0;1.0;1.0;1.0;1.0;1.0;1.0 0
c p weight 6 1.0;1.0;1.0;1.0;1.0;1.0;1.0;1.0;1.0 0
c p weight -6 1.0;1.0;1.0;1.0;1.0;1.0;1.0;1.0;1.0 0
c p weight 7 1.0;1.0;1.0;1.0;1.0;1.0;1.0;1.0;1.0 0
c p weight -7 1.0;1.0;1.0;1.0;1.0;1.0;1.0;1.0;1.0 0
c p weight 8 1.0;1.0;1.0;1.0;1.0;1.0;1.0;1.0;1.0 0
c p weight -8 1.0;1.0;1.0;1.0;1.0;1.0;1.0;1.0;1.0 0
c p weight 9 1.0;1.0;1.0;1.0;1.0;1.0;1.0;1.0;1.0 0
c p weight -9 1.0;1.0;1.0;1.0;1.0;1.0;1.0;1.0;1.0 0
c p weight 10 1.0;1.0;1.0;1.0;1.0;1.0;1.0;1.0;1.0 0
c p weight -10 1.0;1.0;1.0;1.0;1.0;1.0;1.0;1.0;1.0 0
c p weight 11 1.0;1.0;1.0;1.0;1.0;1.0;1.0;1.0;1.0 0
c p weight -11 1.0;1.0;1.0;1.0;1.0;1.0;1.0;1.0;1.0 0
c p weight 12 1.0;1.0;1.0;1.0;1.0;1.0;1.0;1.0;1.0 0
c p weight -12 1.0;1.0;1.0;1.0;1.0;1.0;1.0;1.0;1.0 0
c p weight 13 1.0;1.0;1.0;1.0;1.0;1.0;1.0;1.0;1.0 0
c p weight -13 1.0;1.0;1.0;1.0;1.0;1.0;1.0;1.0;1.0 0
c p weight 14 1.0;1.0;1.0;1.0;1.0;1.0;1.0;1.0;1.0 0
c p weight -14 1.0;1.0;1.0;1.0;1.0;1.0;1.0;1.0;1.0 0
c p weight 15 1.0;1.0;1.0;1.0;1.0;1.0;1.0;1.0;1.0 0
c p weight -15 1.0;1.0;1.0;1.0;1.0;1.0;1.0;1.0;1.0 0
c p weight 16 1.0;1.0;1.0;1.0;1.0;1.0;1.0;1.0;1.0 0
c p weight -16 1.0;1.0;1.0;1.0;1.0;1.0;1.0;1.0;1.0 0
c p weight 17 1.0;1.0;1.0;1.0;1.0;1.0;1.0;1.0;1.0 0
c p weight -17 1.0;1.0;1.0;1.0;1.0;1.0;1.0;1.0;1.0 0
c p weight 18 1.0;1.0;1.0;1.0;1.0;1.0;1.0;1.0;1.0 0
c p weight -18 1.0;1.0;1.0;1.0;1.0;1.0;1.0;1.0;1.0 0
c p weight 19 1.0;1.0;1.0;1.0;1.0;1.0;1.0;1.0;1.0 0
c p weight -19 1.0;1.0;1.0;1.0;1.0;1.0;1.0;1.0;1.0 0
c p weight 20 1.0;1.0;1.0;1.0;1.0;1.0;1.0;1.0;1.0 0
c p weight -20 1.0;1.0;1.0;1.0;1.0;1.0;1.0;1.0;1.0 0
c p weight 21 1.0;1.0;1.0;1.0;1.0;1.0;1.0;1.0;1.0 0
c p weight -21 1.0;1.0;1.0;1.0;1.0;1.0;1.0;1.0;1.0 0
c p weight 22 1.0;1.0;1.0;1.0;1.0;1.0;1.0;1.0;1.0 0
c p weight -22 1.0;1.0;1.0;1.0;1.0;1.0;1.0;1.0;1.0 0
c p weight 23 1.0;1.0;1.0;1.0;1.0;1.0;1.0;1.0;1.0 0
c p weight -23 1.0;1.0;1.0;1.0;1.0;1.0;1.0;1.0;1.0 0
c p weight 24 1.0;1.0;1.0;1.0;1.0;1.0;1.0;1.0;1.0 0
c p weight -24 1.0;1.0;1.0;1.0;1.0;1.0;1.0;1.0;1.0 0
c p weight 25 1.0;1.0;1.0;1.0;1.0;1.0;1.0;1.0;1.0 0
c p weight -25 1.0;1.0;1.0;1.0;1.0;1.0;1.0;1.0;1.0 0
c p weight 26 1.0;1.0;1.0;1.0;1.0;1.0;1.0;1.0;1.0 0
c p weight -26 1.0;1.0;1.0;1.0;1.0;1.0;1.0;1.0;1.0 0
c p weight 27 1.0;1.0;1.0;1.0;1.0;1.0;1.0;1.0;1.0 0
c p weight -27 1.0;1.0;1.0;1.0;1.0;1.0;1.0;1.0;1.0 0
c p weight 28 1.0;1.0;1.0;1.0;1.0;1.0;1.0;1.0;1.0 0
c p weight -28 1.0;1.0;1.0;1.0;1.0;1.0;1.0;1.0;1.0 0
c p weight 29 1.0;1.0;1.0;1.0;1.0;1.0;1.0;1.0;1.0 0
c p weight -29 1.0;1.0;1.0;1.0;1.0;1.0;1.0;1.0;1.0 0
c p weight 30 1.0;1.0;1.0;1.0;1.0;1.0;1.0;1.0;1.0 0
c p weight -30 0.0;1.0;1.0;1.0;1.0;1.0;1.0;1.0;1.0 0
c p weight 31 0.5;0.5;0.5;0.5;0.5;0.5;0.5;0.5;0.5 0
c p weight -31 0.5;0.5;0.5;0.5;0.5;0.5;0.5;0.5;0.5 0
c p weight 32 0.5;0.5;0.5;0.5;0.5;0.5;0.5;0.5;0.5 0
c p weight -32 0.5;0.5;0.5;0.5;0.5;0.5;0.5;0.5;0.5 0
c p weight 33 1.0;1.0;1.0;1.0;1.0;1.0;1.0;1.0;1.0 0
c p weight -33 1.0;0.0;1.0;1.0;1.0;1.0;1.0;1.0;1.0 0
c p weight 34 0.5;0.5;0.5;0.5;0.5;0.5;0.5;0.5;0.5 0
c p weight -34 0.5;0.5;0.5;0.5;0.5;0.5;0.5;0.5;0.5 0
c p weight 35 1.0;1.0;1.0;1.0;1.0;1.0;1.0;1.0;1.0 0
c p weight -35 1.0;1.0;0.0;1.0;1.0;1.0;1.0;1.0;1.0 0
c p weight 36 0.5;0.5;0.5;0.5;0.5;0.5;0.5;0.5;0.5 0
c p weight -36 0.5;0.5;0.5;0.5;0.5;0.5;0.5;0.5;0.5 0
c p weight 37 1.0;1.0;1.0;1.0;1.0;1.0;1.0;1.0;1.0 0
c p weight -37 1.0;1.0;1.0;0.0;1.0;1.0;1.0;1.0;1.0 0
c p weight 38 0.5;0.5;0.5;0.5;0.5;0.5;0.5;0.5;0.5 0
c p weight -38 0.5;0.5;0.5;0.5;0.5;0.5;0.5;0.5;0.5 0
c p weight 39 1.0;1.0;1.0;1.0;1.0;1.0;1.0;1.0;1.0 0
c p weight -39 1.0;1.0;1.0;1.0;0.0;1.0;1.0;1.0;1.0 0
c p weight 40 0.5;0.5;0.5;0.5;0.5;0.5;0.5;0.5;0.5 0
c p weight -40 0.5;0.5;0.5;0.5;0.5;0.5;0.5;0.5;0.5 0
c p weight 41 1.0;1.0;1.0;1.0;1.0;1.0;1.0;1.0;1.0 0
c p weight -41 1.0;1.0;1.0;1.0;1.0;0.0;1.0;1.0;1.0 0
c p weight 42 0.5;0.5;0.5;0.5;0.5;0.5;0.5;0.5;0.5 0
c p weight -42 0.5;0.5;0.5;0.5;0.5;0.5;0.5;0.5;0.5 0
c p weight 43 1.0;1.0;1.0;1.0;1.0;1.0;1.0;1.0;1.0 0
c p weight -43 1.0;1.0;1.0;1.0;1.0;1.0;0.0;1.0;1.0 0
c p weight 44 0.5;0.5;0.5;0.5;0.5;0.5;0.5;0.5;0.5 0
c p weight -44 0.5;0.5;0.5;0.5;0.5;0.5;0.5;0.5;0.5 0
c p weight 45 1.0;1.0;1.0;1.0;1.0;1.0;1.0;1.0;1.0 0
c p weight -45 1.0;1.0;1.0;1.0;1.0;1.0;1.0;0.0;1.0 0
c p weight 46 1.0;1.0;1.0;1.0;1.0;1.0;1.0;1.0;1.0 0
c p weight -46 1.0;1.0;1.0;1.0;1.0;1.0;1.0;1.0;0.0 0
c p weight 47 0.5;0.5;0.5;0.5;0.5;0.5;0.5;0.5;0.5 0
c p weight -47 0.5;0.5;0.5;0.5;0.5;0.5;0.5;0.5;0.5 0
c p weight 48 0.5;0.5;0.5;0.5;0.5;0.5;0.5;0.5;0.5 0
c p weight -48 0.5;0.5;0.5;0.5;0.5;0.5;0.5;0.5;0.5 0
c p weight 49 0.5;0.5;0.5;0.5;0.5;0.5;0.5;0.5;0.5 0
c p weight -49 0.5;0.5;0.5;0.5;0.5;0.5;0.5;0.5;0.5 0
c p weight 50 0.5;0.5;0.5;0.5;0.5;0.5;0.5;0.5;0.5 0
c p weight -50 0.5;0.5;0.5;0.5;0.5;0.5;0.5;0.5;0.5 0
c p weight 51 0.5;0.5;0.5;0.5;0.5;0.5;0.5;0.5;0.5 0
c p weight -51 0.5;0.5;0.5;0.5;0.5;0.5;0.5;0.5;0.5 0
c p weight 52 0.5;0.5;0.5;0.5;0.5;0.5;0.5;0.5;0.5 0
c p weight -52 0.5;0.5;0.5;0.5;0.5;0.5;0.5;0.5;0.5 0
c p weight 53 0.5;0.5;0.5;0.5;0.5;0.5;0.5;0.5;0.5 0
c p weight -53 0.5;0.5;0.5;0.5;0.5;0.5;0.5;0.5;0.5 0
c p weight 54 0.5;0.5;0.5;0.5;0.5;0.5;0.5;0.5;0.5 0
c p weight -54 0.5;0.5;0.5;0.5;0.5;0.5;0.5;0.5;0.5 0
c p weight 55 0.5;0.5;0.5;0.5;0.5;0.5;0.5;0.5;0.5 0
c p weight -55 0.5;0.5;0.5;0.5;0.5;0.5;0.5;0.5;0.5 0
c p weight 56 0.5;0.5;0.5;0.5;0.5;0.5;0.5;0.5;0.5 0
c p weight -56 0.5;0.5;0.5;0.5;0.5;0.5;0.5;0.5;0.5 0
c p weight 57 0.5;0.5;0.5;0.5;0.5;0.5;0.5;0.5;0.5 0
c p weight -57 0.5;0.5;0.5;0.5;0.5;0.5;0.5;0.5;0.5 0
c p weight 58 0.5;0.5;0.5;0.5;0.5;0.5;0.5;0.5;0.5 0
c p weight -58 0.5;0.5;0.5;0.5;0.5;0.5;0.5;0.5;0.5 0
c p weight 59 0.5;0.5;0.5;0.5;0.5;0.5;0.5;0.5;0.5 0
c p weight -59 0.5;0.5;0.5;0.5;0.5;0.5;0.5;0.5;0.5 0
c p weight 60 0.5;0.5;0.5;0.5;0.5;0.5;0.5;0.5;0.5 0
c p weight -60 0.5;0.5;0.5;0.5;0.5;0.5;0.5;0.5;0.5 0
c p weight 61 0.5;0.5;0.5;0.5;0.5;0.5;0.5;0.5;0.5 0
c p weight -61 0.5;0.5;0.5;0.5;0.5;0.5;0.5;0.5;0.5 0
c p weight 62 0.5;0.5;0.5;0.5;0.5;0.5;0.5;0.5;0.5 0
c p weight -62 0.5;0.5;0.5;0.5;0.5;0.5;0.5;0.5;0.5 0
c p weight 63 0.5;0.5;0.5;0.5;0.5;0.5;0.5;0.5;0.5 0
c p weight -63 0.5;0.5;0.5;0.5;0.5;0.5;0.5;0.5;0.5 0
c p weight 64 0.5;0.5;0.5;0.5;0.5;0.5;0.5;0.5;0.5 0
c p weight -64 0.5;0.5;0.5;0.5;0.5;0.5;0.5;0.5;0.5 0
c p weight 65 0.5;0.5;0.5;0.5;0.5;0.5;0.5;0.5;0.5 0
c p weight -65 0.5;0.5;0.5;0.5;0.5;0.5;0.5;0.5;0.5 0
c p weight 66 0.5;0.5;0.5;0.5;0.5;0.5;0.5;0.5;0.5 0
c p weight -66 0.5;0.5;0.5;0.5;0.5;0.5;0.5;0.5;0.5 0
c p weight 67 0.5;0.5;0.5;0.5;0.5;0.5;0.5;0.5;0.5 0
c p weight -67 0.5;0.5;0.5;0.5;0.5;0.5;0.5;0.5;0.5 0
c p weight 68 1.0;1.0;1.0;1.0;1.0;1.0;1.0;1.0;1.0 0
c p weight -68 1.0;1.0;1.0;1.0;1.0;1.0;1.0;1.0;1.0 0
c p weight 69 1.0;1.0;1.0;1.0;1.0;1.0;1.0;1.0;1.0 0
c p weight -69 1.0;1.0;1.0;1.0;1.0;1.0;1.0;1.0;1.0 0
c p weight 70 1.0;1.0;1.0;1.0;1.0;1.0;1.0;1.0;1.0 0
c p weight -70 1.0;1.0;1.0;1.0;1.0;1.0;1.0;1.0;1.0 0
c p weight 71 1.0;1.0;1.0;1.0;1.0;1.0;1.0;1.0;1.0 0
c p weight -71 1.0;1.0;1.0;1.0;1.0;1.0;1.0;1.0;1.0 0
c p weight 72 1.0;1.0;1.0;1.0;1.0;1.0;1.0;1.0;1.0 0
c p weight -72 1.0;1.0;1.0;1.0;1.0;1.0;1.0;1.0;1.0 0
c p weight 73 1.0;1.0;1.0;1.0;1.0;1.0;1.0;1.0;1.0 0
c p weight -73 1.0;1.0;1.0;1.0;1.0;1.0;1.0;1.0;1.0 0
c p weight 74 1.0;1.0;1.0;1.0;1.0;1.0;1.0;1.0;1.0 0
c p weight -74 1.0;1.0;1.0;1.0;1.0;1.0;1.0;1.0;1.0 0
c p weight 75 1.0;1.0;1.0;1.0;1.0;1.0;1.0;1.0;1.0 0
c p weight -75 1.0;1.0;1.0;1.0;1.0;1.0;1.0;1.0;1.0 0
c p weight 76 1.0;1.0;1.0;1.0;1.0;1.0;1.0;1.0;1.0 0
c p weight -76 1.0;1.0;1.0;1.0;1.0;1.0;1.0;1.0;1.0 0
c p weight 77 1.0;1.0;1.0;1.0;1.0;1.0;1.0;1.0;1.0 0
c p weight -77 1.0;1.0;1.0;1.0;1.0;1.0;1.0;1.0;1.0 0
c p weight 78 1.0;1.0;1.0;1.0;1.0;1.0;1.0;1.0;1.0 0
c p weight -78 1.0;1.0;1.0;1.0;1.0;1.0;1.0;1.0;1.0 0
c p weight 79 1.0;1.0;1.0;1.0;1.0;1.0;1.0;1.0;1.0 0
c p weight -79 1.0;1.0;1.0;1.0;1.0;1.0;1.0;1.0;1.0 0
c p weight 80 1.0;1.0;1.0;1.0;1.0;1.0;1.0;1.0;1.0 0
c p weight -80 1.0;1.0;1.0;1.0;1.0;1.0;1.0;1.0;1.0 0
c p weight 81 1.0;1.0;1.0;1.0;1.0;1.0;1.0;1.0;1.0 0
c p weight -81 1.0;1.0;1.0;1.0;1.0;1.0;1.0;1.0;1.0 0
c p weight 82 1.0;1.0;1.0;1.0;1.0;1.0;1.0;1.0;1.0 0
c p weight -82 1.0;1.0;1.0;1.0;1.0;1.0;1.0;1.0;1.0 0
c p weight 83 1.0;1.0;1.0;1.0;1.0;1.0;1.0;1.0;1.0 0
c p weight -83 1.0;1.0;1.0;1.0;1.0;1.0;1.0;1.0;1.0 0
c p weight 84 1.0;1.0;1.0;1.0;1.0;1.0;1.0;1.0;1.0 0
c p weight -84 1.0;1.0;1.0;1.0;1.0;1.0;1.0;1.0;1.0 0
c p weight 85 1.0;1.0;1.0;1.0;1.0;1.0;1.0;1.0;1.0 0
c p weight -85 1.0;1.0;1.0;1.0;1.0;1.0;1.0;1.0;1.0 0
c p weight 86 1.0;1.0;1.0;1.0;1.0;1.0;1.0;1.0;1.0 0
c p weight -86 1.0;1.0;1.0;1.0;1.0;1.0;1.0;1.0;1.0 0
c p weight 87 1.0;1.0;1.0;1.0;1.0;1.0;1.0;1.0;1.0 0
c p weight -87 1.0;1.0;1.0;1.0;1.0;1.0;1.0;1.0;1.0 0
c p weight 88 1.0;1.0;1.0;1.0;1.0;1.0;1.0;1.0;1.0 0
c p weight -88 1.0;1.0;1.0;1.0;1.0;1.0;1.0;1.0;1.0 0
c p weight 89 1.0;1.0;1.0;1.0;1.0;1.0;1.0;1.0;1.0 0
c p weight -89 1.0;1.0;1.0;1.0;1.0;1.0;1.0;1.0;1.0 0
c p weight 90 1.0;1.0;1.0;1.0;1.0;1.0;1.0;1.0;1.0 0
c p weight -90 1.0;1.0;1.0;1.0;1.0;1.0;1.0;1.0;1.0 0
c p weight 91 1.0;1.0;1.0;1.0;1.0;1.0;1.0;1.0;1.0 0
c p weight -91 1.0;1.0;1.0;1.0;1.0;1.0;1.0;1.0;1.0 0
c p weight 92 1.0;1.0;1.0;1.0;1.0;1.0;1.0;1.0;1.0 0
c p weight -92 1.0;1.0;1.0;1.0;1.0;1.0;1.0;1.0;1.0 0
c p weight 93 1.0;1.0;1.0;1.0;1.0;1.0;1.0;1.0;1.0 0
c p weight -93 1.0;1.0;1.0;1.0;1.0;1.0;1.0;1.0;1.0 0
c p weight 94 1.0;1.0;1.0;1.0;1.0;1.0;1.0;1.0;1.0 0
c p weight -94 1.0;1.0;1.0;1.0;1.0;1.0;1.0;1.0;1.0 0
c p weight 95 1.0;1.0;1.0;1.0;1.0;1.0;1.0;1.0;1.0 0
c p weight -95 1.0;1.0;1.0;1.0;1.0;1.0;1.0;1.0;1.0 0
c p weight 96 1.0;1.0;1.0;1.0;1.0;1.0;1.0;1.0;1.0 0
c p weight -96 1.0;1.0;1.0;1.0;1.0;1.0;1.0;1.0;1.0 0
c p weight 97 1.0;1.0;1.0;1.0;1.0;1.0;1.0;1.0;1.0 0
c p weight -97 1.0;1.0;1.0;1.0;1.0;1.0;1.0;1.0;1.0 0
c p weight 98 1.0;1.0;1.0;1.0;1.0;1.0;1.0;1.0;1.0 0
c p weight -98 1.0;1.0;1.0;1.0;1.0;1.0;1.0;1.0;1.0 0
c p weight 99 1.0;1.0;1.0;1.0;1.0;1.0;1.0;1.0;1.0 0
c p weight -99 1.0;1.0;1.0;1.0;1.0;1.0;1.0;1.0;1.0 0
c p weight 100 1.0;1.0;1.0;1.0;1.0;1.0;1.0;1.0;1.0 0
c p weight -100 1.0;1.0;1.0;1.0;1.0;1.0;1.0;1.0;1.0 0
c p weight 101 1.0;1.0;1.0;1.0;1.0;1.0;1.0;1.0;1.0 0
c p weight -101 1.0;1.0;1.0;1.0;1.0;1.0;1.0;1.0;1.0 0
c p weight 102 1.0;1.0;1.0;1.0;1.0;1.0;1.0;1.0;1.0 0
c p weight -102 1.0;1.0;1.0;1.0;1.0;1.0;1.0;1.0;1.0 0
c p weight 103 1.0;1.0;1.0;1.0;1.0;1.0;1.0;1.0;1.0 0
c p weight -103 1.0;1.0;1.0;1.0;1.0;1.0;1.0;1.0;1.0 0
c p weight 104 1.0;1.0;1.0;1.0;1.0;1.0;1.0;1.0;1.0 0
c p weight -104 1.0;1.0;1.0;1.0;1.0;1.0;1.0;1.0;1.0 0
c p weight 105 1.0;1.0;1.0;1.0;1.0;1.0;1.0;1.0;1.0 0
c p weight -105 1.0;1.0;1.0;1.0;1.0;1.0;1.0;1.0;1.0 0
c p weight 106 1.0;1.0;1.0;1.0;1.0;1.0;1.0;1.0;1.0 0
c p weight -106 1.0;1.0;1.0;1.0;1.0;1.0;1.0;1.0;1.0 0
c p weight 107 1.0;1.0;1.0;1.0;1.0;1.0;1.0;1.0;1.0 0
c p weight -107 1.0;1.0;1.0;1.0;1.0;1.0;1.0;1.0;1.0 0
c p weight 108 1.0;1.0;1.0;1.0;1.0;1.0;1.0;1.0;1.0 0
c p weight -108 1.0;1.0;1.0;1.0;1.0;1.0;1.0;1.0;1.0 0
c p weight 109 1.0;1.0;1.0;1.0;1.0;1.0;1.0;1.0;1.0 0
c p weight -109 1.0;1.0;1.0;1.0;1.0;1.0;1.0;1.0;1.0 0
c p weight 110 1.0;1.0;1.0;1.0;1.0;1.0;1.0;1.0;1.0 0
c p weight -110 1.0;1.0;1.0;1.0;1.0;1.0;1.0;1.0;1.0 0
c p weight 111 1.0;1.0;1.0;1.0;1.0;1.0;1.0;1.0;1.0 0
c p weight -111 1.0;1.0;1.0;1.0;1.0;1.0;1.0;1.0;1.0 0
c p weight 112 1.0;1.0;1.0;1.0;1.0;1.0;1.0;1.0;1.0 0
c p weight -112 1.0;1.0;1.0;1.0;1.0;1.0;1.0;1.0;1.0 0
c p weight 113 1.0;1.0;1.0;1.0;1.0;1.0;1.0;1.0;1.0 0
c p weight -113 1.0;1.0;1.0;1.0;1.0;1.0;1.0;1.0;1.0 0
c p weight 114 1.0;1.0;1.0;1.0;1.0;1.0;1.0;1.0;1.0 0
c p weight -114 1.0;1.0;1.0;1.0;1.0;1.0;1.0;1.0;1.0 0
c p weight 115 1.0;1.0;1.0;1.0;1.0;1.0;1.0;1.0;1.0 0
c p weight -115 1.0;1.0;1.0;1.0;1.0;1.0;1.0;1.0;1.0 0
c p weight 116 1.0;1.0;1.0;1.0;1.0;1.0;1.0;1.0;1.0 0
c p weight -116 1.0;1.0;1.0;1.0;1.0;1.0;1.0;1.0;1.0 0
c p weight 117 1.0;1.0;1.0;1.0;1.0;1.0;1.0;1.0;1.0 0
c p weight -117 1.0;1.0;1.0;1.0;1.0;1.0;1.0;1.0;1.0 0
c p weight 118 1.0;1.0;1.0;1.0;1.0;1.0;1.0;1.0;1.0 0
c p weight -118 1.0;1.0;1.0;1.0;1.0;1.0;1.0;1.0;1.0 0
c p weight 119 1.0;1.0;1.0;1.0;1.0;1.0;1.0;1.0;1.0 0
c p weight -119 1.0;1.0;1.0;1.0;1.0;1.0;1.0;1.0;1.0 0
c p weight 120 1.0;1.0;1.0;1.0;1.0;1.0;1.0;1.0;1.0 0
c p weight -120 1.0;1.0;1.0;1.0;1.0;1.0;1.0;1.0;1.0 0
c p weight 121 1.0;1.0;1.0;1.0;1.0;1.0;1.0;1.0;1.0 0
c p weight -121 1.0;1.0;1.0;1.0;1.0;1.0;1.0;1.0;1.0 0
c p weight 122 1.0;1.0;1.0;1.0;1.0;1.0;1.0;1.0;1.0 0
c p weight -122 1.0;1.0;1.0;1.0;1.0;1.0;1.0;1.0;1.0 0
c p weight 123 1.0;1.0;1.0;1.0;1.0;1.0;1.0;1.0;1.0 0
c p weight -123 1.0;1.0;1.0;1.0;1.0;1.0;1.0;1.0;1.0 0
c p weight 124 1.0;1.0;1.0;1.0;1.0;1.0;1.0;1.0;1.0 0
c p weight -124 1.0;1.0;1.0;1.0;1.0;1.0;1.0;1.0;1.0 0
c p weight 125 1.0;1.0;1.0;1.0;1.0;1.0;1.0;1.0;1.0 0
c p weight -125 1.0;1.0;1.0;1.0;1.0;1.0;1.0;1.0;1.0 0
c p weight 126 1.0;1.0;1.0;1.0;1.0;1.0;1.0;1.0;1.0 0
c p weight -126 1.0;1.0;1.0;1.0;1.0;1.0;1.0;1.0;1.0 0
c p weight 127 1.0;1.0;1.0;1.0;1.0;1.0;1.0;1.0;1.0 0
c p weight -127 1.0;1.0;1.0;1.0;1.0;1.0;1.0;1.0;1.0 0
c p weight 128 1.0;1.0;1.0;1.0;1.0;1.0;1.0;1.0;1.0 0
c p weight -128 1.0;1.0;1.0;1.0;1.0;1.0;1.0;1.0;1.0 0
c p weight 129 1.0;1.0;1.0;1.0;1.0;1.0;1.0;1.0;1.0 0
c p weight -129 1.0;1.0;1.0;1.0;1.0;1.0;1.0;1.0;1.0 0
c p weight 130 1.0;1.0;1.0;1.0;1.0;1.0;1.0;1.0;1.0 0
c p weight -130 1.0;1.0;1.0;1.0;1.0;1.0;1.0;1.0;1.0 0
c p weight 131 1.0;1.0;1.0;1.0;1.0;1.0;1.0;1.0;1.0 0
c p weight -131 1.0;1.0;1.0;1.0;1.0;1.0;1.0;1.0;1.0 0
c p weight 132 1.0;1.0;1.0;1.0;1.0;1.0;1.0;1.0;1.0 0
c p weight -132 1.0;1.0;1.0;1.0;1.0;1.0;1.0;1.0;1.0 0
c p weight 133 1.0;1.0;1.0;1.0;1.0;1.0;1.0;1.0;1.0 0
c p weight -133 1.0;1.0;1.0;1.0;1.0;1.0;1.0;1.0;1.0 0
c p weight 134 1.0;1.0;1.0;1.0;1.0;1.0;1.0;1.0;1.0 0
c p weight -134 1.0;1.0;1.0;1.0;1.0;1.0;1.0;1.0;1.0 0
c p weight 135 1.0;1.0;1.0;1.0;1.0;1.0;1.0;1.0;1.0 0
c p weight -135 1.0;1.0;1.0;1.0;1.0;1.0;1.0;1.0;1.0 0
c p weight 136 1.0;1.0;1.0;1.0;1.0;1.0;1.0;1.0;1.0 0
c p weight -136 1.0;1.0;1.0;1.0;1.0;1.0;1.0;1.0;1.0 0
c p weight 137 1.0;1.0;1.0;1.0;1.0;1.0;1.0;1.0;1.0 0
c p weight -137 1.0;1.0;1.0;1.0;1.0;1.0;1.0;1.0;1.0 0
c p weight 138 1.0;1.0;1.0;1.0;1.0;1.0;1.0;1.0;1.0 0
c p weight -138 1.0;1.0;1.0;1.0;1.0;1.0;1.0;1.0;1.0 0
c p weight 139 1.0;1.0;1.0;1.0;1.0;1.0;1.0;1.0;1.0 0
c p weight -139 1.0;1.0;1.0;1.0;1.0;1.0;1.0;1.0;1.0 0
c p weight 140 1.0;1.0;1.0;1.0;1.0;1.0;1.0;1.0;1.0 0
c p weight -140 1.0;1.0;1.0;1.0;1.0;1.0;1.0;1.0;1.0 0
c p weight 141 1.0;1.0;1.0;1.0;1.0;1.0;1.0;1.0;1.0 0
c p weight -141 1.0;1.0;1.0;1.0;1.0;1.0;1.0;1.0;1.0 0
c p weight 142 1.0;1.0;1.0;1.0;1.0;1.0;1.0;1.0;1.0 0
c p weight -142 1.0;1.0;1.0;1.0;1.0;1.0;1.0;1.0;1.0 0
c p weight 143 1.0;1.0;1.0;1.0;1.0;1.0;1.0;1.0;1.0 0
c p weight -143 1.0;1.0;1.0;1.0;1.0;1.0;1.0;1.0;1.0 0
c p weight 144 1.0;1.0;1.0;1.0;1.0;1.0;1.0;1.0;1.0 0
c p weight -144 1.0;1.0;1.0;1.0;1.0;1.0;1.0;1.0;1.0 0
c p weight 145 1.0;1.0;1.0;1.0;1.0;1.0;1.0;1.0;1.0 0
c p weight -145 1.0;1.0;1.0;1.0;1.0;1.0;1.0;1.0;1.0 0
c p weight 146 1.0;1.0;1.0;1.0;1.0;1.0;1.0;1.0;1.0 0
c p weight -146 1.0;1.0;1.0;1.0;1.0;1.0;1.0;1.0;1.0 0
c p weight 147 1.0;1.0;1.0;1.0;1.0;1.0;1.0;1.0;1.0 0
c p weight -147 1.0;1.0;1.0;1.0;1.0;1.0;1.0;1.0;1.0 0
c p weight 148 1.0;1.0;1.0;1.0;1.0;1.0;1.0;1.0;1.0 0
c p weight -148 1.0;1.0;1.0;1.0;1.0;1.0;1.0;1.0;1.0 0
c p weight 149 1.0;1.0;1.0;1.0;1.0;1.0;1.0;1.0;1.0 0
c p weight -149 1.0;1.0;1.0;1.0;1.0;1.0;1.0;1.0;1.0 0
c p weight 150 1.0;1.0;1.0;1.0;1.0;1.0;1.0;1.0;1.0 0
c p weight -150 1.0;1.0;1.0;1.0;1.0;1.0;1.0;1.0;1.0 0
c p weight 151 1.0;1.0;1.0;1.0;1.0;1.0;1.0;1.0;1.0 0
c p weight -151 1.0;1.0;1.0;1.0;1.0;1.0;1.0;1.0;1.0 0
c p weight 152 1.0;1.0;1.0;1.0;1.0;1.0;1.0;1.0;1.0 0
c p weight -152 1.0;1.0;1.0;1.0;1.0;1.0;1.0;1.0;1.0 0
c p weight 153 1.0;1.0;1.0;1.0;1.0;1.0;1.0;1.0;1.0 0
c p weight -153 1.0;1.0;1.0;1.0;1.0;1.0;1.0;1.0;1.0 0
c p weight 154 1.0;1.0;1.0;1.0;1.0;1.0;1.0;1.0;1.0 0
c p weight -154 1.0;1.0;1.0;1.0;1.0;1.0;1.0;1.0;1.0 0
c p weight 155 1.0;1.0;1.0;1.0;1.0;1.0;1.0;1.0;1.0 0
c p weight -155 1.0;1.0;1.0;1.0;1.0;1.0;1.0;1.0;1.0 0
c p weight 156 1.0;1.0;1.0;1.0;1.0;1.0;1.0;1.0;1.0 0
c p weight -156 1.0;1.0;1.0;1.0;1.0;1.0;1.0;1.0;1.0 0
c p weight 157 1.0;1.0;1.0;1.0;1.0;1.0;1.0;1.0;1.0 0
c p weight -157 1.0;1.0;1.0;1.0;1.0;1.0;1.0;1.0;1.0 0
c p weight 158 1.0;1.0;1.0;1.0;1.0;1.0;1.0;1.0;1.0 0
c p weight -158 1.0;1.0;1.0;1.0;1.0;1.0;1.0;1.0;1.0 0
c p weight 159 1.0;1.0;1.0;1.0;1.0;1.0;1.0;1.0;1.0 0
c p weight -159 1.0;1.0;1.0;1.0;1.0;1.0;1.0;1.0;1.0 0
c p weight 160 1.0;1.0;1.0;1.0;1.0;1.0;1.0;1.0;1.0 0
c p weight -160 1.0;1.0;1.0;1.0;1.0;1.0;1.0;1.0;1.0 0
c p weight 161 1.0;1.0;1.0;1.0;1.0;1.0;1.0;1.0;1.0 0
c p weight -161 1.0;1.0;1.0;1.0;1.0;1.0;1.0;1.0;1.0 0
c p weight 162 1.0;1.0;1.0;1.0;1.0;1.0;1.0;1.0;1.0 0
c p weight -162 1.0;1.0;1.0;1.0;1.0;1.0;1.0;1.0;1.0 0
c p weight 163 1.0;1.0;1.0;1.0;1.0;1.0;1.0;1.0;1.0 0
c p weight -163 1.0;1.0;1.0;1.0;1.0;1.0;1.0;1.0;1.0 0
c p semirings aspmc.semirings.probabilistic 0
c p quantify 1 2 3 4 5 6 7 8 9 10 11 12 13 14 15 16 17 18 19 20 21 22 23 24 25 26 27 28 29 30 31 32 33 34 35 36 37 38 39 40 41 42 43 44 45 46 47 48 49 50 51 52 53 54 55 56 57 58 59 60 61 62 63 64 65 66 67 68 69 70 71 72 73 74 75 76 77 78 79 80 81 82 83 84 85 86 87 88 89 90 91 92 93 94 95 96 97 98 99 100 101 102 103 104 105 106 107 108 109 110 111 112 113 114 115 116 117 118 119 120 121 122 123 124 125 126 127 128 129 130 131 132 133 134 135 136 137 138 139 140 141 142 143 144 145 146 147 148 149 150 151 152 153 154 155 156 157 158 159 160 161 162 163 0
c p auxilliary 1 2 3 4 5 6 7 8 9 10 11 12 13 14 15 16 17 18 19 20 21 22 23 24 25 26 27 28 29 68 69 70 71 72 73 74 75 76 77 78 79 80 81 82 83 84 85 86 87 88 89 90 91 92 93 94 95 96 97 98 99 100 101 102 103 104 105 106 107 108 109 110 111 112 113 114 115 116 117 118 119 120 121 122 123 124 125 126 127 128 129 130 131 132 133 134 135 136 137 138 139 140 141 142 143 144 145 146 147 148 149 150 151 152 153 154 155 156 157 158 159 160 161 162 163 0
